p wcnf 7 26 8
1 1 0
8 -1 -2 0
8 -1 -3 0
8 -1 -4 0
8 -1 -5 0
8 -1 -6 0
1 2 0
8 -2 -3 0
8 -2 -4 0
8 -2 -5 0
8 -2 -6 0
8 -2 -7 0
1 3 0
8 -3 -4 0
8 -3 -5 0
8 -3 -6 0
8 -3 -7 0
1 4 0
8 -4 -6 0
8 -4 -7 0
1 5 0
8 -5 -6 0
8 -5 -7 0
1 6 0
8 -6 -7 0
1 7 0
